c instancia_07  vars=15  clausulas=25  k=2
p cnf 15 25
-13 -14 0
15 3 0
-15 7 0
9 7 0
6 14 0
-12 -8 0
-9 10 0
-13 -14 0
-8 -15 0
-12 6 0
-12 -1 0
-8 -14 0
4 -1 0
-13 -15 0
9 -3 0
5 -12 0
3 -2 0
8 11 0
-13 -6 0
11 -3 0
11 -2 0
-14 15 0
7 -1 0
1 -12 0
-9 2 0
